\ This file was automatically generated by Zimpl
\ var x1 >= 0;
\ var x2 >= 0;
\ var x3 >= 0;
\ minimize Z:     9*x1 + 6*x2 + 12*x3;
\ subto c1:     1*x1 + 2*x2 + 1*x3 >= 4;
\ subto c2:     2*x1 + 1*x2 + 1*x3 >= 5;
\ subto c3:     2*x1 + 3*x2 + 2*x3 >= 6;
\Problem name: pp
Minimize
 Z:  +9 x1 +6 x2 +12 x3
Subject to
 c1_1:
  + x3 +2 x2 + x1 >= 4
 c2_1:
  + x3 + x2 +2 x1 >= 5
 c3_1:
  +2 x3 +3 x2 +2 x1 >= 6
Bounds
 0 <= x1 <= +inf
 0 <= x2 <= +inf
 0 <= x3 <= +inf
End
